(set-logic QF_S)
(declare-fun var0 () String)
(declare-fun var1 () Int)
(declare-fun var2 () Bool)
(declare-fun var3 () String)
(declare-fun var4 () Int)
(declare-fun var5 () Bool)
(declare-fun var6 () String)
(declare-fun var7 () Int)
(declare-fun var8 () Bool)
(assert (str.contains (str.substr var0 var7 var1) (str.at var0 var7)))
(assert (str.suffixof (str.at var6 var1) (str.at var3 var4)))
(assert (str.prefixof (str.substr var6 var4 var7) (str.at (str.at "QYl""wa#gd{" var1) (str.indexof var0 ":fIL<rEbjR" var7))))
(assert (str.contains (str.replace var0 var0 var3) (str.substr var3 var7 var4)))
(check-sat)